DIMACS2
40 106 17 112 100 110 135 52 146 59 145 126 57 13 70 62 5 23 36 37 132 116 151 114 8 66 104 47 20 120 9 144 115 64 92 32 60 98 56 119 53
p edge 160 339
e 0 33 2.0
e 0 109 2.0
e 1 67 1.0
e 1 54 1.0
e 2 146 21.0
e 2 75 3.0
e 3 128 2.0
e 3 133 1.0
e 4 16 1.0
e 4 116 26.0
e 5 119 47.0
e 5 6 6.0
e 6 110 25.0
e 6 91 1.0
e 7 81 2.0
e 7 50 1.0
e 8 87 11.0
e 8 77 37.0
e 8 98 11.0
e 8 126 5.0
e 8 144 33.0
e 9 37 26.0
e 9 44 18.0
e 9 146 38.0
e 10 47 32.0
e 10 98 43.0
e 11 135 15.0
e 11 121 1.0
e 12 58 1.0
e 12 7 1.0
e 13 36 41.0
e 13 46 33.0
e 13 37 29.0
e 13 56 10.0
e 14 47 11.0
e 14 133 2.0
e 15 82 1.0
e 15 30 1.0
e 16 5 18.0
e 16 122 1.0
e 17 35 38.0
e 17 76 3.0
e 17 106 24.0
e 17 62 22.0
e 18 66 13.0
e 18 3 1.0
e 19 59 42.0
e 19 48 1.0
e 20 25 27.0
e 20 11 18.0
e 20 146 15.0
e 21 156 1.0
e 21 34 1.0
e 22 72 1.0
e 22 104 17.0
e 23 81 4.0
e 23 135 21.0
e 23 112 13.0
e 24 155 1.0
e 24 142 1.0
e 25 79 1.0
e 25 109 1.0
e 26 57 26.0
e 26 56 11.0
e 27 18 2.0
e 27 25 2.0
e 28 80 1.0
e 28 138 1.0
e 29 14 1.0
e 29 23 27.0
e 30 3 2.0
e 30 41 3.0
e 31 62 36.0
e 31 38 1.0
e 32 66 37.0
e 32 132 22.0
e 33 126 21.0
e 33 77 1.0
e 34 156 1.0
e 34 116 49.0
e 35 72 1.0
e 35 3 2.0
e 36 53 9.0
e 36 67 30.0
e 37 103 38.0
e 37 141 49.0
e 38 36 14.0
e 38 73 1.0
e 39 7 1.0
e 39 109 1.0
e 40 51 1.0
e 40 21 1.0
e 41 152 2.0
e 41 6 2.0
e 42 66 8.0
e 42 141 1.0
e 43 69 1.0
e 43 87 1.0
e 44 154 2.0
e 44 127 1.0
e 45 42 1.0
e 45 132 9.0
e 46 102 1.0
e 46 48 3.0
e 47 51 47.0
e 47 39 41.0
e 48 39 1.0
e 48 86 2.0
e 49 127 1.0
e 49 51 1.0
e 50 3 1.0
e 50 60 27.0
e 51 110 4.0
e 51 4 1.0
e 52 155 26.0
e 52 79 27.0
e 52 98 23.0
e 53 92 37.0
e 54 52 26.0
e 54 133 1.0
e 55 147 1.0
e 55 141 1.0
e 56 22 13.0
e 56 40 24.0
e 57 102 10.0
e 57 142 11.0
e 58 117 1.0
e 58 20 7.0
e 59 42 26.0
e 59 41 48.0
e 59 100 35.0
e 60 111 38.0
e 60 88 21.0
e 60 62 16.0
e 60 64 18.0
e 61 116 4.0
e 61 57 18.0
e 62 3 14.0
e 62 82 31.0
e 63 73 1.0
e 63 104 30.0
e 64 14 41.0
e 64 59 16.0
e 64 151 29.0
e 64 70 38.0
e 65 31 1.0
e 65 132 41.0
e 66 69 35.0
e 66 63 48.0
e 67 103 1.0
e 67 140 1.0
e 68 106 25.0
e 68 147 2.0
e 69 5 18.0
e 69 145 32.0
e 70 134 12.0
e 70 7 12.0
e 70 151 9.0
e 70 100 16.0
e 71 68 1.0
e 71 128 1.0
e 72 36 27.0
e 72 9 11.0
e 73 105 1.0
e 73 93 1.0
e 74 105 1.0
e 74 157 1.0
e 75 86 2.0
e 75 26 1.0
e 76 82 2.0
e 76 88 1.0
e 77 130 2.0
e 78 130 1.0
e 78 30 1.0
e 79 102 2.0
e 79 81 1.0
e 80 74 2.0
e 80 144 43.0
e 81 156 3.0
e 82 138 1.0
e 82 123 1.0
e 83 141 1.0
e 83 155 1.0
e 84 103 2.0
e 84 138 2.0
e 85 43 2.0
e 85 140 3.0
e 86 16 1.0
e 86 5 33.0
e 87 104 25.0
e 87 105 1.0
e 88 93 1.0
e 88 57 2.0
e 89 88 1.0
e 89 31 1.0
e 90 154 2.0
e 90 49 1.0
e 91 83 1.0
e 91 33 1.0
e 92 96 25.0
e 92 148 39.0
e 93 34 2.0
e 93 110 30.0
e 94 76 1.0
e 94 11 1.0
e 95 25 1.0
e 95 145 24.0
e 96 73 1.0
e 96 114 15.0
e 97 7 1.0
e 97 53 12.0
e 98 108 19.0
e 98 71 6.0
e 99 41 1.0
e 99 55 2.0
e 100 30 35.0
e 100 15 31.0
e 100 112 37.0
e 101 53 15.0
e 101 134 1.0
e 102 71 1.0
e 102 154 1.0
e 103 129 2.0
e 103 141 1.0
e 104 124 12.0
e 104 147 11.0
e 105 32 38.0
e 105 96 1.0
e 106 56 7.0
e 106 147 45.0
e 107 92 34.0
e 107 88 2.0
e 108 73 1.0
e 108 23 17.0
e 109 81 3.0
e 109 51 1.0
e 110 5 18.0
e 110 144 16.0
e 111 92 14.0
e 111 89 1.0
e 112 13 23.0
e 112 37 45.0
e 113 6 1.0
e 113 118 1.0
e 114 128 38.0
e 114 89 44.0
e 114 115 37.0
e 114 119 22.0
e 115 134 36.0
e 115 99 4.0
e 115 151 4.0
e 115 119 28.0
e 116 27 46.0
e 116 44 28.0
e 117 106 8.0
e 117 12 1.0
e 118 27 1.0
e 118 123 1.0
e 119 7 8.0
e 119 44 23.0
e 120 85 38.0
e 120 32 8.0
e 121 77 1.0
e 121 31 1.0
e 122 110 1.0
e 122 131 1.0
e 123 32 9.0
e 123 152 2.0
e 124 72 1.0
e 124 41 2.0
e 125 143 2.0
e 125 35 1.0
e 126 53 17.0
e 126 61 22.0
e 127 87 1.0
e 127 43 1.0
e 128 136 1.0
e 128 38 1.0
e 129 69 2.0
e 129 9 18.0
e 130 150 4.0
e 130 43 1.0
e 131 128 2.0
e 131 30 1.0
e 132 84 2.0
e 132 145 4.0
e 133 112 40.0
e 133 24 1.0
e 134 3 2.0
e 134 47 27.0
e 135 38 15.0
e 135 47 43.0
e 136 158 1.0
e 137 149 2.0
e 137 132 4.0
e 138 65 1.0
e 138 121 1.0
e 139 125 2.0
e 139 143 1.0
e 140 71 2.0
e 140 103 2.0
e 141 44 1.0
e 141 117 1.0
e 142 1 1.0
e 142 17 4.0
e 143 133 1.0
e 143 52 35.0
e 144 27 43.0
e 144 63 15.0
e 145 40 47.0
e 145 135 5.0
e 146 30 19.0
e 146 147 34.0
e 147 145 21.0
e 147 86 2.0
e 148 68 1.0
e 148 15 1.0
e 149 0 2.0
e 149 136 1.0
e 150 104 44.0
e 150 78 2.0
e 151 28 38.0
e 151 89 22.0
e 152 135 41.0
e 152 67 3.0
e 153 99 1.0
e 153 10 1.0
e 154 122 1.0
e 154 126 9.0
e 155 121 1.0
e 155 153 1.0
e 156 1 1.0
e 156 90 1.0
e 157 20 26.0
e 157 41 1.0
e 158 29 3.0
e 158 94 2.0
e 159 50 1.0
e 159 91 1.0
